
Gurobi 7.5.2 (linux64) logging started Sat Jul  7 17:08:44 2018

Changed value of parameter LogFile to result/ilp/simNo_3-n_100-m_40-s_4-minVAF_0.05-cov_10000-k_1-fn_0.25-fp_0.0001-na_0.15.ILP.gurobiSolverLog
   Prev: gurobi.log  Default: 
Changed value of parameter TimeLimit to 86400.0
   Prev: 1e+100  Min: 0.0  Max: 1e+100  Default: 1e+100
Optimize a model with 639293 rows, 10765 columns and 1940420 nonzeros
Variable types: 0 continuous, 10765 integer (10765 binary)
Coefficient statistics:
  Matrix range     [1e-04, 4e+00]
  Objective range  [1e+00, 2e+01]
  Bounds range     [1e+00, 1e+00]
  RHS range        [2e-01, 2e+00]
Found heuristic solution: objective -11506.42555
Presolve removed 131841 rows and 1023 columns (presolve time = 5s) ...
Presolve removed 133338 rows and 1023 columns (presolve time = 15s) ...
Presolve removed 133338 rows and 1601 columns (presolve time = 15s) ...
Presolve removed 191138 rows and 1601 columns (presolve time = 21s) ...
Presolve removed 191138 rows and 1601 columns
Presolve time: 22.30s
Presolved: 448155 rows, 9164 columns, 1348324 nonzeros
Variable types: 0 continuous, 9164 integer (9164 binary)
Presolved: 9164 rows, 457319 columns, 1357488 nonzeros

Presolve removed 9164 rows and 457319 columns

Root simplex log...

Iteration    Objective       Primal Inf.    Dual Inf.      Time
       0    2.0702576e+01   0.000000e+00   5.772200e+04     27s
   16032   -2.2278610e+02   0.000000e+00   1.513900e+05     30s
   33048   -2.9741915e+02   0.000000e+00   8.842270e+04     35s
   49379   -3.3733405e+02   0.000000e+00   0.000000e+00     41s
   49379   -3.3733405e+02   0.000000e+00   0.000000e+00     42s

Root relaxation: objective -3.373341e+02, 49379 iterations, 17.41 seconds
Total elapsed time = 84.02s
Total elapsed time = 144.06s
Total elapsed time = 162.21s

    Nodes    |    Current Node    |     Objective Bounds      |     Work
 Expl Unexpl |  Obj  Depth IntInf | Incumbent    BestBd   Gap | It/Node Time

     0     0 -337.33405    0 1085 -11506.426 -337.33405  97.1%     -  165s
H    0     0                    -443.3134971 -337.33405  23.9%     -  170s
H    0     0                    -399.4064960 -337.33405  15.5%     -  178s
     0     0 -345.13256    0  971 -399.40650 -345.13256  13.6%     -  437s
     0     0 -345.13256    0  980 -399.40650 -345.13256  13.6%     -  452s
     0     0 -348.18166    0  988 -399.40650 -348.18166  12.8%     -  533s
     0     0 -348.18166    0  983 -399.40650 -348.18166  12.8%     -  581s
     0     0 -349.09639    0 1024 -399.40650 -349.09639  12.6%     -  680s
     0     0 -349.19803    0 1043 -399.40650 -349.19803  12.6%     -  713s
     0     0 -349.19803    0 1046 -399.40650 -349.19803  12.6%     -  717s
     0     0 -350.35959    0  985 -399.40650 -350.35959  12.3%     -  749s
     0     0 -350.35959    0  985 -399.40650 -350.35959  12.3%     -  789s
     0     0 -351.23076    0  976 -399.40650 -351.23076  12.1%     -  868s
     0     0 -351.23076    0  974 -399.40650 -351.23076  12.1%     -  875s
     0     0 -352.29794    0  863 -399.40650 -352.29794  11.8%     - 1007s
     0     0 -352.31972    0  865 -399.40650 -352.31972  11.8%     - 1057s
     0     0 -352.36724    0  867 -399.40650 -352.36724  11.8%     - 1069s
     0     0 -353.06022    0  838 -399.40650 -353.06022  11.6%     - 1114s
     0     0 -353.36513    0  863 -399.40650 -353.36513  11.5%     - 1131s
     0     0 -353.43549    0  854 -399.40650 -353.43549  11.5%     - 1144s
     0     0 -353.49068    0  862 -399.40650 -353.49068  11.5%     - 1156s
     0     0 -353.50372    0  861 -399.40650 -353.50372  11.5%     - 1163s
     0     0 -354.03038    0  880 -399.40650 -354.03038  11.4%     - 1213s
     0     0 -354.04270    0  898 -399.40650 -354.04270  11.4%     - 1223s
     0     0 -354.04669    0  901 -399.40650 -354.04669  11.4%     - 1234s
     0     0 -354.54292    0  855 -399.40650 -354.54292  11.2%     - 1260s
     0     0 -354.64575    0  858 -399.40650 -354.64575  11.2%     - 1282s
     0     0 -354.65010    0  903 -399.40650 -354.65010  11.2%     - 1297s
     0     0 -354.65010    0  889 -399.40650 -354.65010  11.2%     - 1303s
     0     0 -355.78095    0  859 -399.40650 -355.78095  10.9%     - 1612s
     0     0 -356.03614    0  825 -399.40650 -356.03614  10.9%     - 1689s
     0     0 -356.10931    0  823 -399.40650 -356.10931  10.8%     - 1700s
     0     0 -356.49045    0  836 -399.40650 -356.49045  10.7%     - 1748s
H    0     0                    -398.1868571 -356.49045  10.5%     - 1783s
     0     0 -356.79536    0  869 -398.18686 -356.79536  10.4%     - 1816s
     0     0 -356.92241    0  870 -398.18686 -356.92241  10.4%     - 1852s
     0     0 -356.92241    0  898 -398.18686 -356.92241  10.4%     - 1864s
     0     0 -357.32895    0  786 -398.18686 -357.32895  10.3%     - 1944s
     0     0 -357.32895    0  846 -398.18686 -357.32895  10.3%     - 1989s
     0     0 -357.41607    0  625 -398.18686 -357.41607  10.2%     - 2020s
     0     0 -357.53223    0  609 -398.18686 -357.53223  10.2%     - 2075s
     0     0 -357.53223    0  617 -398.18686 -357.53223  10.2%     - 2084s
     0     0 -357.63386    0  623 -398.18686 -357.63386  10.2%     - 2115s
     0     0 -357.85746    0  626 -398.18686 -357.85746  10.1%     - 2211s
     0     0 -357.93877    0  589 -398.18686 -357.93877  10.1%     - 2366s
     0     0 -357.93877    0  592 -398.18686 -357.93877  10.1%     - 2370s
     0     0 -357.93877    0  622 -398.18686 -357.93877  10.1%     - 2390s
     0     0 -357.97265    0  629 -398.18686 -357.97265  10.1%     - 2446s
     0     0 -357.98959    0  629 -398.18686 -357.98959  10.1%     - 2463s
     0     0 -357.98959    0  630 -398.18686 -357.98959  10.1%     - 2466s
     0     0 -358.70105    0  654 -398.18686 -358.70105  9.92%     - 4030s
     0     0 -358.79252    0  673 -398.18686 -358.79252  9.89%     - 4138s
     0     0 -358.85350    0  666 -398.18686 -358.85350  9.88%     - 4214s
     0     0 -358.85350    0  663 -398.18686 -358.85350  9.88%     - 4220s
     0     0 -359.15841    0  608 -398.18686 -359.15841  9.80%     - 4963s
     0     0 -359.15841    0  597 -398.18686 -359.15841  9.80%     - 5005s
     0     0 -359.15841    0  604 -398.18686 -359.15841  9.80%     - 5015s
     0     0 -359.28038    0  591 -398.18686 -359.28038  9.77%     - 5356s
     0     0 -359.36168    0  579 -398.18686 -359.36168  9.75%     - 5770s
     0     0 -359.37114    0  638 -398.18686 -359.37114  9.75%     - 5876s
     0     0 -359.39231    0  637 -398.18686 -359.39231  9.74%     - 5923s
     0     0 -359.39402    0  638 -398.18686 -359.39402  9.74%     - 5931s
     0     0 -359.76823    0  572 -398.18686 -359.76823  9.65%     - 7968s
     0     0 -359.76823    0  585 -398.18686 -359.76823  9.65%     - 8010s
     0     0 -359.90896    0  629 -398.18686 -359.90896  9.61%     - 8530s
     0     0 -360.07314    0  623 -398.18686 -360.07314  9.57%     - 8617s
     0     0 -360.15725    0  643 -398.18686 -360.15725  9.55%     - 8654s
     0     0 -360.17344    0  641 -398.18686 -360.17344  9.55%     - 8674s
     0     0 -360.19145    0  639 -398.18686 -360.19145  9.54%     - 8693s
     0     0 -360.19338    0  639 -398.18686 -360.19338  9.54%     - 8703s
     0     0 -360.71997    0  632 -398.18686 -360.71997  9.41%     - 8812s
     0     0 -360.78460    0  631 -398.18686 -360.78460  9.39%     - 8896s
     0     0 -360.83542    0  633 -398.18686 -360.83542  9.38%     - 8911s
     0     0 -360.83542    0  635 -398.18686 -360.83542  9.38%     - 8913s
     0     0 -360.86591    0  629 -398.18686 -360.86591  9.37%     - 8934s
     0     0 -360.98787    0  629 -398.18686 -360.98787  9.34%     - 9061s
     0     0 -361.05563    0  639 -398.18686 -361.05563  9.33%     - 9232s
     0     0 -361.07257    0  641 -398.18686 -361.07257  9.32%     - 9285s
     0     0 -361.07499    0  639 -398.18686 -361.07499  9.32%     - 9303s
     0     0 -361.64460    0  631 -398.18686 -361.64460  9.18%     - 10104s
     0     0 -361.95641    0  627 -398.18686 -361.95641  9.10%     - 10357s
     0     0 -362.01021    0  631 -398.18686 -362.01021  9.09%     - 10503s
     0     0 -362.01021    0  633 -398.18686 -362.01021  9.09%     - 10506s
     0     0 -362.71569    0  620 -398.18686 -362.71569  8.91%     - 13066s
     0     0 -362.85798    0  634 -398.18686 -362.85798  8.87%     - 13217s
     0     0 -362.89356    0  638 -398.18686 -362.89356  8.86%     - 13274s
     0     0 -362.89356    0  636 -398.18686 -362.89356  8.86%     - 13277s
     0     0 -362.99156    0  628 -398.18686 -362.99156  8.84%     - 13326s
     0     0 -363.09320    0  623 -398.18686 -363.09320  8.81%     - 13507s
     0     0 -363.13829    0  626 -398.18686 -363.13829  8.80%     - 13619s
     0     0 -363.18322    0  627 -398.18686 -363.18322  8.79%     - 14201s
     0     0 -363.19847    0  628 -398.18686 -363.19847  8.79%     - 14295s
     0     0 -363.19847    0  627 -398.18686 -363.19847  8.79%     - 14300s
     0     0 -363.73206    0  628 -398.18686 -363.73206  8.65%     - 19819s
     0     0 -364.03697    0  619 -398.18686 -364.03697  8.58%     - 21688s
     0     0 -364.03697    0  618 -398.18686 -364.03697  8.58%     - 21691s
     0     0 -364.03697    0  581 -398.18686 -364.03697  8.58%     - 21696s
     0     0 -364.03697    0  617 -398.18686 -364.03697  8.58%     - 21723s
     0     0 -364.03697    0  617 -398.18686 -364.03697  8.58%     - 21729s
     0     0 -364.24024    0  629 -398.18686 -364.24024  8.53%     - 21778s
     0     0 -364.24024    0  623 -398.18686 -364.24024  8.53%     - 21783s
     0     0 -364.64679    0  449 -398.18686 -364.64679  8.42%     - 22833s
     0     0 -364.64679    0  453 -398.18686 -364.64679  8.42%     - 22846s
     0     0 -364.64679    0  621 -398.18686 -364.64679  8.42%     - 22939s
     0     0 -364.64679    0  620 -398.18686 -364.64679  8.42%     - 22971s
     0     0 -364.76875    0  589 -398.18686 -364.76875  8.39%     - 23243s
     0     0 -364.85006    0  630 -398.18686 -364.85006  8.37%     - 23282s
     0     0 -364.85006    0  626 -398.18686 -364.85006  8.37%     - 23286s
     0     0 -364.85006    0  633 -398.18686 -364.85006  8.37%     - 23294s
     0     0 -364.89569    0  639 -398.18686 -364.89569  8.36%     - 23345s
     0     0 -364.95599    0  643 -398.18686 -364.95599  8.35%     - 23354s
     0     0 -365.10415    0  643 -398.18686 -365.10415  8.31%     - 23382s
     0     0 -365.14962    0  640 -398.18686 -365.14962  8.30%     - 23429s
     0     0 -365.15981    0  643 -398.18686 -365.15981  8.29%     - 23442s
     0     0 -365.16279    0  642 -398.18686 -365.16279  8.29%     - 23452s
     0     0 -365.16626    0  642 -398.18686 -365.16626  8.29%     - 23459s
     0     0 -365.16626    0  641 -398.18686 -365.16626  8.29%     - 23462s
     0     0 -365.92450    0  616 -398.18686 -365.92450  8.10%     - 23481s
     0     0 -366.14362    0  633 -398.18686 -366.14362  8.05%     - 23554s
     0     0 -366.15529    0  635 -398.18686 -366.15529  8.04%     - 23574s
     0     0 -366.15983    0  636 -398.18686 -366.15983  8.04%     - 23593s
     0     0 -366.17134    0  639 -398.18686 -366.17134  8.04%     - 23615s
     0     0 -366.17134    0  639 -398.18686 -366.17134  8.04%     - 23617s
     0     0 -366.17134    0  642 -398.18686 -366.17134  8.04%     - 23623s
H    0     0                    -394.5279403 -366.17134  7.19%     - 23658s
     0     0 -366.25942    0  620 -394.52794 -366.25942  7.17%     - 23712s
     0     0 -366.34093    0  639 -394.52794 -366.34093  7.14%     - 23732s
     0     0 -366.36413    0  632 -394.52794 -366.36413  7.14%     - 23741s
     0     0 -366.37461    0  628 -394.52794 -366.37461  7.14%     - 23750s
     0     0 -366.37802    0  629 -394.52794 -366.37802  7.14%     - 23756s
     0     0 -366.37867    0  639 -394.52794 -366.37867  7.13%     - 23760s
     0     0 -367.07056    0  638 -394.52794 -367.07056  6.96%     - 23849s
H    0     0                    -393.3083014 -367.07056  6.67%     - 23880s
     0     0 -367.28934    0  630 -393.30830 -367.28934  6.62%     - 23919s
     0     0 -367.28934    0  644 -393.30830 -367.28934  6.62%     - 23924s
     0     0 -367.86089    0  642 -393.30830 -367.86089  6.47%     - 27070s
     0     0 -367.89651    0  640 -393.30830 -367.89651  6.46%     - 27103s
     0     0 -367.90484    0  638 -393.30830 -367.90484  6.46%     - 27108s
     0     0 -367.95323    0  643 -393.30830 -367.95323  6.45%     - 27139s
     0     0 -367.95922    0  643 -393.30830 -367.95922  6.45%     - 27145s
     0     0 -367.96102    0  646 -393.30830 -367.96102  6.44%     - 27159s
     0     0 -367.98325    0  649 -393.30830 -367.98325  6.44%     - 27171s
     0     0 -367.98627    0  651 -393.30830 -367.98627  6.44%     - 27205s
     0     0 -367.99578    0  652 -393.30830 -367.99578  6.44%     - 27233s
     0     0 -368.06801    0  654 -393.30830 -368.06801  6.42%     - 27279s
     0     0 -368.09082    0  653 -393.30830 -368.09082  6.41%     - 27302s
     0     0 -368.09688    0  657 -393.30830 -368.09688  6.41%     - 27308s
     0     0 -368.09765    0  660 -393.30830 -368.09765  6.41%     - 27315s
     0     0 -368.24369    0  636 -393.30830 -368.24369  6.37%     - 27935s
     0     0 -368.36990    0  652 -393.30830 -368.36990  6.34%     - 27990s
     0     0 -368.40074    0  650 -393.30830 -368.40074  6.33%     - 28002s
     0     0 -368.40549    0  659 -393.30830 -368.40549  6.33%     - 28011s
     0     0 -368.41638    0  664 -393.30830 -368.41638  6.33%     - 28022s
     0     0 -368.41638    0  667 -393.30830 -368.41638  6.33%     - 28024s
     0     0 -369.32557    0  639 -393.30830 -369.32557  6.10%     - 28109s
     0     0 -369.47452    0  647 -393.30830 -369.47452  6.06%     - 28183s
     0     0 -369.56890    0  643 -393.30830 -369.56890  6.04%     - 28246s
     0     0 -369.59068    0  650 -393.30830 -369.59068  6.03%     - 28279s
     0     0 -369.59068    0  652 -393.30830 -369.59068  6.03%     - 28283s
     0     0 -369.89426    0  655 -393.30830 -369.89426  5.95%     - 28335s
     0     0 -369.96510    0  660 -393.30830 -369.96510  5.94%     - 28391s
     0     0 -369.96629    0  663 -393.30830 -369.96629  5.93%     - 28399s
     0     0 -370.53404    0  656 -393.30830 -370.53404  5.79%     - 29248s
     0     0 -370.74850    0  654 -393.30830 -370.74850  5.74%     - 29487s
     0     0 -370.79385    0  654 -393.30830 -370.79385  5.72%     - 29512s
     0     0 -370.81935    0  657 -393.30830 -370.81935  5.72%     - 29622s
     0     0 -370.82394    0  654 -393.30830 -370.82394  5.72%     - 29631s
     0     0 -370.82403    0  654 -393.30830 -370.82403  5.72%     - 29641s
     0     0 -370.82403    0  660 -393.30830 -370.82403  5.72%     - 29647s
     0     0 -370.82488    0  661 -393.30830 -370.82488  5.72%     - 29682s
     0     0 -371.28511    0  653 -393.30830 -371.28511  5.60%     - 29763s
     0     0 -371.33896    0  649 -393.30830 -371.33896  5.59%     - 29995s
     0     0 -371.44204    0  654 -393.30830 -371.44204  5.56%     - 30040s
     0     0 -371.47676    0  647 -393.30830 -371.47676  5.55%     - 30052s
     0     0 -371.47676    0  650 -393.30830 -371.47676  5.55%     - 30055s
     0     0 -371.73356    0  659 -393.30830 -371.73356  5.49%     - 30504s
     0     0 -371.80929    0  661 -393.30830 -371.80929  5.47%     - 30551s
     0     0 -371.81555    0  657 -393.30830 -371.81555  5.46%     - 30573s
     0     0 -371.82090    0  658 -393.30830 -371.82090  5.46%     - 30598s
     0     0 -371.82126    0  662 -393.30830 -371.82126  5.46%     - 30603s
     0     0 -371.94956    0  660 -393.30830 -371.94956  5.43%     - 30785s
     0     0 -372.01021    0  661 -393.30830 -372.01021  5.42%     - 30890s
     0     0 -372.01998    0  656 -393.30830 -372.01998  5.41%     - 30911s
     0     0 -372.03366    0  660 -393.30830 -372.03366  5.41%     - 30950s
     0     0 -372.03669    0  664 -393.30830 -372.03669  5.41%     - 30962s
     0     0 -372.11708    0  656 -393.30830 -372.11708  5.39%     - 31164s
     0     0 -372.18944    0  658 -393.30830 -372.18944  5.37%     - 31271s
     0     0 -372.19662    0  663 -393.30830 -372.19662  5.37%     - 31280s
     0     0 -372.19662    0  664 -393.30830 -372.19662  5.37%     - 31282s
     0     0 -372.24979    0  659 -393.30830 -372.24979  5.35%     - 31327s
     0     0 -372.33989    0  654 -393.30830 -372.33989  5.33%     - 31436s
     0     0 -372.34465    0  666 -393.30830 -372.34465  5.33%     - 31915s
     0     0 -372.34465    0  668 -393.30830 -372.34465  5.33%     - 31917s
     0     0 -372.95871    0  654 -393.30830 -372.95871  5.17%     - 32105s
     0     0 -373.14617    0  657 -393.30830 -373.14617  5.13%     - 32313s
     0     0 -373.19797    0  658 -393.30830 -373.19797  5.11%     - 32365s
     0     0 -373.20251    0  663 -393.30830 -373.20251  5.11%     - 32375s
     0     0 -373.20251    0  664 -393.30830 -373.20251  5.11%     - 32378s
     0     0 -373.65372    0  655 -393.30830 -373.65372  5.00%     - 36383s
     0     0 -373.71941    0  670 -393.30830 -373.71941  4.98%     - 36456s
     0     0 -373.73160    0  672 -393.30830 -373.73160  4.98%     - 36490s
     0     0 -373.73693    0  668 -393.30830 -373.73693  4.98%     - 36528s
     0     0 -373.73735    0  672 -393.30830 -373.73735  4.98%     - 36549s
     0     0 -373.95877    0  664 -393.30830 -373.95877  4.92%     - 37760s
     0     0 -374.53654    0  659 -393.30830 -374.53654  4.77%     - 37924s
     0     0 -374.66271    0  654 -393.30830 -374.66271  4.74%     - 38039s
     0     0 -374.68373    0  661 -393.30830 -374.68373  4.74%     - 38075s
     0     0 -374.68944    0  662 -393.30830 -374.68944  4.73%     - 38096s
     0     0 -374.69146    0  665 -393.30830 -374.69146  4.73%     - 38112s
     0     0 -375.00873    0  648 -393.30830 -375.00873  4.65%     - 38195s
     0     0 -375.03551    0  655 -393.30830 -375.03551  4.65%     - 38225s
     0     0 -375.05719    0  659 -393.30830 -375.05719  4.64%     - 38398s
     0     0 -375.06124    0  654 -393.30830 -375.06124  4.64%     - 38426s
     0     0 -375.06442    0  658 -393.30830 -375.06442  4.64%     - 38434s
     0     0 -375.36258    0  641 -393.30830 -375.36258  4.56%     - 38488s
     0     0 -375.47586    0  653 -393.30830 -375.47586  4.53%     - 39485s
     0     0 -375.48530    0  663 -393.30830 -375.48530  4.53%     - 39491s
     0     0 -375.49681    0  665 -393.30830 -375.49681  4.53%     - 39504s
     0     0 -375.50580    0  664 -393.30830 -375.50580  4.53%     - 39514s
     0     0 -375.50595    0  668 -393.30830 -375.50595  4.53%     - 39519s
     0     0 -375.51035    0  667 -393.30830 -375.51035  4.53%     - 39532s
     0     0 -375.51545    0  665 -393.30830 -375.51545  4.52%     - 39566s
     0     0 -375.51706    0  665 -393.30830 -375.51706  4.52%     - 39574s
     0     0 -375.51870    0  668 -393.30830 -375.51870  4.52%     - 39587s
     0     0 -375.51870    0  655 -393.30830 -375.51870  4.52%     - 39808s
     0     2 -375.52314    0  655 -393.30830 -375.52314  4.52%     - 40089s
     1     3 -377.57496    1  586 -393.30830 -375.52314  4.52% 12313 40141s
     2     4 -378.01662    1  624 -393.30830 -377.58031  4.00% 12659 40211s
     3     5 -378.94705    2  597 -393.30830 -377.58031  4.00% 10111 40228s
     4     6 -380.31915    2  567 -393.30830 -378.01725  3.89%  8789 40249s
     5     7 -383.85610    3  509 -393.30830 -378.01725  3.89%  9739 40305s
     6     8 -381.54750    3  601 -393.30830 -378.01725  3.89%  9543 40338s
     7     9 -383.59184    4  575 -393.30830 -378.01725  3.89%  8384 40349s
     8    10 -385.13672    5  600 -393.30830 -378.01725  3.89%  7474 40371s
     9    11 -391.47884    5  460 -393.30830 -378.01725  3.89%  8381 40455s
    11     9     cutoff    6      -393.30830 -378.01725  3.89%  7256 40470s
    12    10 -386.60029    6  570 -393.30830 -378.01725  3.89%  6889 40479s
    13    11 -389.03957    7  484 -393.30830 -378.01725  3.89%  6418 40485s
    15    13 -392.39357    9  466 -393.30830 -378.01725  3.89%  5613 40491s
    21    11 -392.15076    2 1573 -393.30830 -378.01789  3.89%  6834 40857s
    22    10     cutoff    3      -393.30830 -378.01789  3.89%  6684 40871s
    24    10 -378.41103    2  618 -393.30830 -378.41103  3.79%  6173 40984s
    25    11 -381.86246    3  653 -393.30830 -378.42030  3.79%  6981 41309s
    26    12 -382.34201    4  647 -393.30830 -378.42030  3.79%  7061 41397s
    27    13 -389.24284    4  546 -393.30830 -378.42030  3.79% 11505 43410s
    28    14 -390.86902    5  372 -393.30830 -378.42030  3.79% 11150 43427s
    29    15 -392.08866    6  365 -393.30830 -378.42030  3.79% 10856 43451s
    30    16 -392.69848    7  364 -393.30830 -378.42030  3.79% 10566 43465s
    31    15     cutoff    8      -393.30830 -378.42030  3.79% 10317 43479s
    32    14     cutoff    8      -393.30830 -378.42030  3.79% 11722 44198s
    33    13     cutoff    7      -393.30830 -378.42030  3.79% 12492 44708s
    34    12     cutoff    6      -393.30830 -378.42030  3.79% 21108 53696s
    35    13 -382.04215    3  621 -393.30830 -380.31947  3.30% 21391 54427s
    36    14 -385.01476    4  645 -393.30830 -380.31947  3.30% 21047 54610s
    37    15 -386.60029    5  624 -393.30830 -380.31947  3.30% 20608 54696s
    38    16 -388.42975    6  480 -393.30830 -380.31947  3.30% 20096 54713s
    39    17 -390.25920    6  591 -393.30830 -380.31947  3.30% 22113 57471s
    40    18 -384.89921    4  637 -393.30830 -380.31947  3.30% 35895 80377s
    41    19 -388.42975    5  442 -393.30830 -380.31947  3.30% 37677 83151s
    42    20 -392.82045    7  475 -393.30830 -380.31947  3.30% 38233 83996s
    43    19     cutoff    8      -393.30830 -380.31947  3.30% 37580 84086s

Cutting planes:
  Gomory: 5
  Zero half: 581

Explored 44 nodes (3230890 simplex iterations) in 86400.13 seconds
Thread count was 1 (of 80 available processors)

Solution count 6: -393.308 -394.528 -398.187 ... -11506.4

Time limit reached
Best objective -3.933083013836e+02, best bound -3.803194698761e+02, gap 3.3025%
